SCIP version 0.82 [precision: 8 byte] [memory: block] [mode: optimized] [LP solver: SOPLEX 1.3.0]
Copyright (c) 2002-2006 Konrad-Zuse-Zentrum fuer Informationstechnik Berlin (ZIB)

reading parameter file <scip.set>

read problem </ufs/psxjm3/instances/random_1.ctt.tp.zpl>
============

****************************************************
* Zuse Institute Mathematical Programming Language *
* Release 2.04  Copyright (C)2005 by Thorsten Koch *
****************************************************

original problem has 5866 variables (5830 bin, 36 int, 0 impl, 0 cont) and 4367 constraints

solve problem
=============

LP Solver <SOPLEX 1.3.0>: dual feasibility tolerance cannot be set -- tolerance of SCIP and LP solver may differ
LP Solver <SOPLEX 1.3.0>: barrier convergence tolerance cannot be set -- tolerance of SCIP and LP solver may differ
LP Solver <SOPLEX 1.3.0>: fastmip setting not available -- SCIP parameter has no effect
LP Solver <SOPLEX 1.3.0>: scaling not available -- SCIP parameter has no effect
LP Solver <SOPLEX 1.3.0>: presolving not available -- SCIP parameter has no effect
transformed problem has 5866 variables (5830 bin, 36 int, 0 impl, 0 cont) and 4367 constraints
   4367 constraints of type <linear>

presolving:
(round 1) 654 del vars, 154 del conss, 654 chg bounds, 0 chg sides, 0 chg coeffs, 0 upgd conss, 0 impls, 2218 clqs
(round 2) 654 del vars, 278 del conss, 654 chg bounds, 0 chg sides, 0 chg coeffs, 0 upgd conss, 0 impls, 2218 clqs
(round 3) 654 del vars, 1523 del conss, 654 chg bounds, 1283 chg sides, 0 chg coeffs, 0 upgd conss, 0 impls, 2218 clqs
(round 4) 654 del vars, 1523 del conss, 654 chg bounds, 1283 chg sides, 0 chg coeffs, 2664 upgd conss, 0 impls, 2218 clqs
(round 5) 654 del vars, 1598 del conss, 654 chg bounds, 1283 chg sides, 6 chg coeffs, 2664 upgd conss, 0 impls, 2218 clqs
   (2.9s) probing: 100/5176 (1.9%) - 0 fixings, 0 aggregations, 0 implications, 0 bound changes
presolving (6 rounds):
 654 deleted vars, 1598 deleted constraints, 654 tightened bounds, 0 added holes, 1283 changed sides, 6 changed coefficients
 0 implications, 2218 cliques
presolved problem has 5212 variables (5176 bin, 36 int, 0 impl, 0 cont) and 2769 constraints
   1000 constraints of type <knapsack>
   1425 constraints of type <setppc>
    180 constraints of type <linear>
    164 constraints of type <logicor>
objective value is always integral
Presolving Time: 2.73

 time | node  | left  |LP iter| mem |mdpt |frac |vars |cons |ccons|cols |rows |cuts |confs|strbr|  dualbound   | primalbound  |  gap   
  4.1s|     1 |     0 |  1146 |  39M|   0 | 310 |5212 |2769 |2769 |5212 |2769 |   0 |   0 |   0 | 0.000000e+00 |      --      |    Inf 
  4.6s|     1 |     0 |  1277 |  39M|   0 | 366 |5212 |2769 |2769 |5212 |2775 |   6 |   0 |   0 | 0.000000e+00 |      --      |    Inf 
  5.1s|     1 |     0 |  1415 |  39M|   0 | 394 |5212 |2769 |2769 |5212 |2780 |  11 |   0 |   0 | 0.000000e+00 |      --      |    Inf 
  5.7s|     1 |     0 |  1531 |  39M|   0 | 395 |5212 |2769 |2769 |5212 |2788 |  19 |   0 |   0 | 0.000000e+00 |      --      |    Inf 
  6.2s|     1 |     0 |  1619 |  39M|   0 | 407 |5212 |2769 |2769 |5212 |2794 |  25 |   0 |   0 | 0.000000e+00 |      --      |    Inf 
  6.5s|     1 |     0 |  1666 |  39M|   0 | 418 |5212 |2769 |2769 |5212 |2801 |  32 |   0 |   0 | 0.000000e+00 |      --      |    Inf 
  7.0s|     1 |     0 |  1724 |  39M|   0 | 413 |5212 |2769 |2769 |5212 |2807 |  38 |   0 |   0 | 0.000000e+00 |      --      |    Inf 
 69.1s|     1 |     2 | 11727 |  39M|   0 | 413 |5212 |2769 |2769 |5212 |2807 |  38 |   0 |  33 | 0.000000e+00 |      --      |    Inf 
R 379s|    68 |    52 | 31959 |  40M|  67 |   - |5212 |2769 |2223 |5212 |2800 |  38 |   0 | 219 | 0.000000e+00 | 2.000000e+00 |    Inf 
  394s|   100 |    82 | 40058 |  40M|  67 | 154 |5212 |2769 |2171 |5212 |2800 |  38 |   0 | 219 | 0.000000e+00 | 2.000000e+00 |    Inf 
R 435s|   186 |     0 | 54633 |  40M|  95 |   - |5212 |2769 |1951 |5212 |2800 |  38 |   0 | 234 | 0.000000e+00 | 0.000000e+00 |   0.00%

SCIP Status        : problem is solved [optimal solution found]
Solving Time (sec) : 434.83
Solving Nodes      : 186
Primal Bound       : +0.00000000000000e+00 (2 solutions)
Dual Bound         : +0.00000000000000e+00
Gap                : 0.00 %

primal solution:
================

objective value:                                    0
Taught#1#3#8                                        1 	(obj:0)
Taught#1#5#26                                       1 	(obj:0)
Taught#1#6#19                                       1 	(obj:0)
Taught#2#1#26                                       1 	(obj:0)
Taught#2#2#8                                        1 	(obj:0)
Taught#2#3#36                                       1 	(obj:0)
Taught#2#4#19                                       1 	(obj:0)
Taught#2#6#15                                       1 	(obj:0)
Taught#3#3#10                                       1 	(obj:0)
Taught#3#4#11                                       1 	(obj:0)
Taught#3#5#27                                       1 	(obj:0)
Taught#3#6#29                                       1 	(obj:0)
Taught#4#1#35                                       1 	(obj:0)
Taught#4#2#14                                       1 	(obj:0)
Taught#4#3#31                                       1 	(obj:0)
Taught#4#5#5                                        1 	(obj:0)
Taught#4#6#12                                       1 	(obj:0)
Taught#5#4#18                                       1 	(obj:0)
Taught#6#2#7                                        1 	(obj:0)
Taught#6#4#35                                       1 	(obj:0)
Taught#6#5#5                                        1 	(obj:0)
Taught#6#6#15                                       1 	(obj:0)
Taught#7#2#24                                       1 	(obj:0)
Taught#7#3#16                                       1 	(obj:0)
Taught#7#4#36                                       1 	(obj:0)
Taught#7#5#6                                        1 	(obj:0)
Taught#7#6#12                                       1 	(obj:0)
Taught#8#1#35                                       1 	(obj:0)
Taught#8#2#1                                        1 	(obj:0)
Taught#8#3#24                                       1 	(obj:0)
Taught#8#4#22                                       1 	(obj:0)
Taught#8#5#6                                        1 	(obj:0)
Taught#8#6#9                                        1 	(obj:0)
Taught#9#1#27                                       1 	(obj:0)
Taught#9#2#4                                        1 	(obj:0)
Taught#9#4#2                                        1 	(obj:0)
Taught#9#5#17                                       1 	(obj:0)
Taught#9#6#36                                       1 	(obj:0)
Taught#10#5#17                                      1 	(obj:0)
Taught#10#6#13                                      1 	(obj:0)
Taught#11#1#30                                      1 	(obj:0)
Taught#11#3#16                                      1 	(obj:0)
Taught#11#4#1                                       1 	(obj:0)
Taught#11#5#34                                      1 	(obj:0)
Taught#11#6#20                                      1 	(obj:0)
Taught#12#1#3                                       1 	(obj:0)
Taught#12#2#32                                      1 	(obj:0)
Taught#12#3#30                                      1 	(obj:0)
Taught#12#4#33                                      1 	(obj:0)
Taught#12#5#28                                      1 	(obj:0)
Taught#12#6#11                                      1 	(obj:0)
Taught#13#1#4                                       1 	(obj:0)
Taught#13#2#32                                      1 	(obj:0)
Taught#13#4#28                                      1 	(obj:0)
Taught#13#5#33                                      1 	(obj:0)
Taught#13#6#29                                      1 	(obj:0)
Taught#14#1#24                                      1 	(obj:0)
Taught#14#4#22                                      1 	(obj:0)
Taught#14#5#2                                       1 	(obj:0)
Taught#14#6#7                                       1 	(obj:0)
Taught#15#1#7                                       1 	(obj:0)
Taught#15#2#25                                      1 	(obj:0)
Taught#15#3#23                                      1 	(obj:0)
Taught#15#6#13                                      1 	(obj:0)
Taught#16#3#10                                      1 	(obj:0)
Taught#16#4#17                                      1 	(obj:0)
Taught#16#5#9                                       1 	(obj:0)
Taught#16#6#29                                      1 	(obj:0)
Taught#17#3#10                                      1 	(obj:0)
Taught#17#4#18                                      1 	(obj:0)
Taught#17#5#23                                      1 	(obj:0)
Taught#17#6#21                                      1 	(obj:0)
Taught#18#1#7                                       1 	(obj:0)
Taught#18#2#35                                      1 	(obj:0)
Taught#18#3#25                                      1 	(obj:0)
Taught#18#4#33                                      1 	(obj:0)
Taught#18#5#4                                       1 	(obj:0)
Taught#18#6#12                                      1 	(obj:0)
Taught#19#1#5                                       1 	(obj:0)
Taught#19#2#30                                      1 	(obj:0)
Taught#19#3#8                                       1 	(obj:0)
Taught#19#4#11                                      1 	(obj:0)
Taught#19#5#9                                       1 	(obj:0)
Taught#19#6#21                                      1 	(obj:0)
Taught#20#4#34                                      1 	(obj:0)
Taught#20#5#2                                       1 	(obj:0)
Taught#20#6#11                                      1 	(obj:0)
Taught#21#4#6                                       1 	(obj:0)
Taught#21#6#15                                      1 	(obj:0)
Taught#22#4#33                                      1 	(obj:0)
Taught#22#6#15                                      1 	(obj:0)
Taught#23#4#36                                      1 	(obj:0)
Taught#23#6#20                                      1 	(obj:0)
Taught#24#3#14                                      1 	(obj:0)
Taught#24#4#9                                       1 	(obj:0)
Taught#24#5#18                                      1 	(obj:0)
Taught#24#6#31                                      1 	(obj:0)
Taught#25#1#3                                       1 	(obj:0)
Taught#25#4#2                                       1 	(obj:0)
Taught#25#5#17                                      1 	(obj:0)
CourseSchedule#1#2                                  1 	(obj:0)
CourseSchedule#1#3                                  1 	(obj:0)
CourseSchedule#2#2                                  1 	(obj:0)
CourseSchedule#2#3                                  1 	(obj:0)
CourseSchedule#2#4                                  1 	(obj:0)
CourseSchedule#2#5                                  1 	(obj:0)
CourseSchedule#3#3                                  1 	(obj:0)
CourseSchedule#3#5                                  1 	(obj:0)
CourseSchedule#4#2                                  1 	(obj:0)
CourseSchedule#4#3                                  1 	(obj:0)
CourseSchedule#4#4                                  1 	(obj:0)
CourseSchedule#5#1                                  1 	(obj:0)
CourseSchedule#5#2                                  1 	(obj:0)
CourseSchedule#5#4                                  1 	(obj:0)
CourseSchedule#6#2                                  1 	(obj:0)
CourseSchedule#6#5                                  1 	(obj:0)
CourseSchedule#7#2                                  1 	(obj:0)
CourseSchedule#7#3                                  1 	(obj:0)
CourseSchedule#7#4                                  1 	(obj:0)
CourseSchedule#8#1                                  1 	(obj:0)
CourseSchedule#8#4                                  1 	(obj:0)
CourseSchedule#9#2                                  1 	(obj:0)
CourseSchedule#9#4                                  1 	(obj:0)
CourseSchedule#9#5                                  1 	(obj:0)
CourseSchedule#10#1                                 1 	(obj:0)
CourseSchedule#10#4                                 1 	(obj:0)
CourseSchedule#11#1                                 1 	(obj:0)
CourseSchedule#11#3                                 1 	(obj:0)
CourseSchedule#11#4                                 1 	(obj:0)
CourseSchedule#12#1                                 1 	(obj:0)
CourseSchedule#12#2                                 1 	(obj:0)
CourseSchedule#12#4                                 1 	(obj:0)
CourseSchedule#13#2                                 1 	(obj:0)
CourseSchedule#13#3                                 1 	(obj:0)
CourseSchedule#14#1                                 1 	(obj:0)
CourseSchedule#14#5                                 1 	(obj:0)
CourseSchedule#15#1                                 1 	(obj:0)
CourseSchedule#15#2                                 1 	(obj:0)
CourseSchedule#15#5                                 1 	(obj:0)
CourseSchedule#16#2                                 1 	(obj:0)
CourseSchedule#16#3                                 1 	(obj:0)
CourseSchedule#17#2                                 1 	(obj:0)
CourseSchedule#17#4                                 1 	(obj:0)
CourseSchedule#17#5                                 1 	(obj:0)
CourseSchedule#18#1                                 1 	(obj:0)
CourseSchedule#18#4                                 1 	(obj:0)
CourseSchedule#18#5                                 1 	(obj:0)
CourseSchedule#19#1                                 1 	(obj:0)
CourseSchedule#20#3                                 1 	(obj:0)
CourseSchedule#20#5                                 1 	(obj:0)
CourseSchedule#21#4                                 1 	(obj:0)
CourseSchedule#22#2                                 1 	(obj:0)
CourseSchedule#22#3                                 1 	(obj:0)
CourseSchedule#23#3                                 1 	(obj:0)
CourseSchedule#23#4                                 1 	(obj:0)
CourseSchedule#24#2                                 1 	(obj:0)
CourseSchedule#24#3                                 1 	(obj:0)
CourseSchedule#25#3                                 1 	(obj:0)
CourseSchedule#25#4                                 1 	(obj:0)
CourseSchedule#26#1                                 1 	(obj:0)
CourseSchedule#27#1                                 1 	(obj:0)
CourseSchedule#27#2                                 1 	(obj:0)
CourseSchedule#28#3                                 1 	(obj:0)
CourseSchedule#29#1                                 1 	(obj:0)
CourseSchedule#29#3                                 1 	(obj:0)
CourseSchedule#29#4                                 1 	(obj:0)
CourseSchedule#30#3                                 1 	(obj:0)
CourseSchedule#30#4                                 1 	(obj:0)
CourseSchedule#31#1                                 1 	(obj:0)
CourseSchedule#31#5                                 1 	(obj:0)
CourseSchedule#32#3                                 1 	(obj:0)
CourseSchedule#33#3                                 1 	(obj:0)
CourseSchedule#33#4                                 1 	(obj:0)
CourseSchedule#33#5                                 1 	(obj:0)
CourseSchedule#34#3                                 1 	(obj:0)
CourseSchedule#34#4                                 1 	(obj:0)
CourseSchedule#35#1                                 1 	(obj:0)
CourseSchedule#35#2                                 1 	(obj:0)
CourseSchedule#35#4                                 1 	(obj:0)
CourseSchedule#36#1                                 1 	(obj:0)
CourseSchedule#36#2                                 1 	(obj:0)
CourseSchedule#36#5                                 1 	(obj:0)

Statistics
==========

SCIP Status        : problem is solved [optimal solution found]
Solving Time       :     434.83
Original Problem   :
  Problem name     : random_1.ctt.tp.zpl
  Variables        : 5866 (5830 binary, 36 integer, 0 implicit integer, 0 continuous)
  Constraints      : 4367 initial, 4367 maximal
Presolved Problem  :
  Problem name     : t_random_1.ctt.tp.zpl
  Variables        : 5212 (5176 binary, 36 integer, 0 implicit integer, 0 continuous)
  Constraints      : 2769 initial, 2769 maximal
Presolvers         :       Time  FixedVars   AggrVars   ChgTypes  ChgBounds   AddHoles    DelCons   ChgSides   ChgCoefs
  trivial          :       0.01          0          0          0          0          0          0          0          0
  inttobinary      :       0.00          0          0          0          0          0          0          0          0
  dualfix          :       0.00          0          0          0          0          0          0          0          0
  implics          :       0.00          0          0          0          0          0          0          0          0
  probing          :       0.81          0          0          0          0          0          0          0          0
  knapsack         :       0.82          0          0          0          0          0          0          0          6
  setppc           :       0.04          0          0          0          0          0         75          0          0
  linear           :       0.93        654          0          0        654          0       1523       1283          0
  logicor          :       0.00          0          0          0          0          0          0          0          0
  root node        :          -       1840          -          -       1840          -          -          -          -
Constraints        :     Number  #Separate #Propagate    #EnfoLP    #EnfoPS    Cutoffs    DomReds       Cuts      Conss   Children
  integral         :          0          0          0        170          0          0          1          0          0        338
  knapsack         :       1000          6        546          0          0          0        144          0          0          0
  setppc           :       1425          6        546          0          0          0       4205          0          0          0
  linear           :        180          6        283          0          0          0       1144          0          0          0
  logicor          :        164          6        142          0          0          0         68          0          0          0
Constraint Timings :  TotalTime   Separate  Propagate     EnfoLP     EnfoPS
  integral         :     315.81       0.00       0.00     315.81       0.00
  knapsack         :       0.29       0.19       0.10       0.00       0.00
  setppc           :       0.09       0.00       0.09       0.00       0.00
  linear           :       0.57       0.00       0.57       0.00       0.00
  logicor          :       0.01       0.00       0.01       0.00       0.00
Propagators        :       Time      Calls    Cutoffs    DomReds
  rootredcost      :       0.00          1          0       1840
  pseudoobj        :       0.00        346          0          0
Conflict Analysis  :       Time      Calls    Success  Conflicts   Literals    Reconvs ReconvLits   LP Iters
  propagation      :       0.00          0          0          0        0.0          0        0.0          -
  infeasible LP    :       0.00          0          0          0        0.0          0        0.0          0
  bound exceed. LP :       0.00          0          0          0        0.0          0        0.0          0
  strong branching :       0.00          0          0          0        0.0          0        0.0          0
  pseudo solution  :       0.00          0          0          0        0.0          0        0.0          -
  applied globally :          -          -          -          0        0.0          -          -          -
  applied locally  :          -          -          -          0        0.0          -          -          -
Separators         :       Time      Calls    Cutoffs    DomReds       Cuts      Conss
  cut pool         :       0.00          5          -          -          1          -    (maximal pool size: 38)
  redcost          :       0.21        162          0        179          0          0
  impliedbounds    :       0.01          6          0          0          0          0
  intobj           :       0.00          0          0          0          0          0
  gomory           :       0.20          6          0          0          0          0
  strongcg         :       0.23          6          0          0          0          0
  cmir             :       0.76          6          0          0          0          0
  clique           :       0.07          6          0          0         37          0
Pricers            :       Time      Calls       Vars
  problem variables:       0.00          0          0
Branching Rules    :       Time      Calls    Cutoffs    DomReds       Cuts      Conss   Children
  relpscost        :     315.81        170          0          1          0          0        338
  pscost           :       0.00          0          0          0          0          0          0
  inference        :       0.00          0          0          0          0          0          0
  mostinf          :       0.00          0          0          0          0          0          0
  leastinf         :       0.00          0          0          0          0          0          0
  fullstrong       :       0.00          0          0          0          0          0          0
  allfullstrong    :       0.00          0          0          0          0          0          0
Primal Heuristics  :       Time      Calls      Found
  LP solutions     :       0.00          -          0
  pseudo solutions :       0.00          -          0
  coefdiving       :       0.00          0          0
  pscostdiving     :       0.00          0          0
  fracdiving       :       0.00          0          0
  objpscostdiving  :       0.00          0          0
  rootsoldiving    :       0.00          0          0
  linesearchdiving :       0.00          0          0
  guideddiving     :       0.00          0          0
  crossover        :       0.00          0          0
  feaspump         :      27.86          1          0
  simplerounding   :       0.18        178          0
  rounding         :       0.79        178          2
  shifting         :       0.43         23          0
  fixandinfer      :       0.00          0          0
  intdiving        :       0.00          0          0
  octane           :       0.00          0          0
  rins             :       0.00          0          0
  localbranching   :       0.00          0          0
LP                 :       Time      Calls Iterations  Iter/call   Iter/sec
  primal LP        :       0.01          0          0       0.00       0.00
  dual LP          :      84.31        187      44630     238.66     529.36
  barrier LP       :       0.00          0          0       0.00          -
  diving/probing LP:      27.70         17      10003     588.41     361.12
  strong branching :     315.78        234     141655     605.36     448.59
    (at root node) :          -         33      15745     477.12          -
  conflict analysis:       0.00          0          0       0.00          -
B&B Tree           :
  number of runs   :          1
  nodes            :        186
  nodes (total)    :        186
  nodes left       :          0
  max depth        :         95
  max depth (total):         95
  backtracks       :          2 (1.1%)
  delayed cutoffs  :          0
  repropagations   :          1 (0 domain reductions, 0 cutoffs)
  avg switch length:       2.35
  switching time   :       0.07
Solution           :
  Solutions found  :          2 (2 improvements)
  Primal Bound     : +0.00000000000000e+00   (in run 1, after 186 nodes, 434.78 seconds, depth 76, found by <rounding>)
  Dual Bound       : +0.00000000000000e+00
  Gap              :       0.00 %
  Root Dual Bound  : +0.00000000000000e+00
